src/ARITHMETIC/COUNT_LEADING_ZEROES/bne/model/design_smt2.smt2
; SMT-LIBv2 description generated by Yosys 0.9+2406 (git sha1 a1785e988b, g++ 9.3.0 -fPIC -Os)
; yosys-smt2-module boundary_nibble_encoder
(declare-sort |boundary_nibble_encoder_s| 0)
(declare-fun |boundary_nibble_encoder_is| (|boundary_nibble_encoder_s|) Bool)
; yosys-smt2-wire w_N9 1
(declare-fun |boundary_nibble_encoder#0| (|boundary_nibble_encoder_s|) (_ BitVec 1)) ; \i_ZEROED_NIBBLES [0]
(declare-fun |boundary_nibble_encoder#1| (|boundary_nibble_encoder_s|) (_ BitVec 1)) ; \i_ZEROED_NIBBLES [2]
(define-fun |boundary_nibble_encoder#2| ((state |boundary_nibble_encoder_s|)) (_ BitVec 1) (bvand (|boundary_nibble_encoder#0| state) (|boundary_nibble_encoder#1| state))) ; $and$./boundary_nibble_encoder.v:21$26_Y
(declare-fun |boundary_nibble_encoder#3| (|boundary_nibble_encoder_s|) (_ BitVec 1)) ; \i_ZEROED_NIBBLES [4]
(define-fun |boundary_nibble_encoder#4| ((state |boundary_nibble_encoder_s|)) (_ BitVec 1) (bvand (|boundary_nibble_encoder#2| state) (|boundary_nibble_encoder#3| state))) ; \w_N8
(declare-fun |boundary_nibble_encoder#5| (|boundary_nibble_encoder_s|) (_ BitVec 1)) ; \i_ZEROED_NIBBLES [6]
(define-fun |boundary_nibble_encoder#6| ((state |boundary_nibble_encoder_s|)) (_ BitVec 1) (bvnot (|boundary_nibble_encoder#5| state))) ; $not$./boundary_nibble_encoder.v:20$23_Y
(declare-fun |boundary_nibble_encoder#7| (|boundary_nibble_encoder_s|) (_ BitVec 1)) ; \i_ZEROED_NIBBLES [5]
(define-fun |boundary_nibble_encoder#8| ((state |boundary_nibble_encoder_s|)) (_ BitVec 1) (bvand (|boundary_nibble_encoder#6| state) (|boundary_nibble_encoder#7| state))) ; $and$./boundary_nibble_encoder.v:20$24_Y
(define-fun |boundary_nibble_encoder#9| ((state |boundary_nibble_encoder_s|)) (_ BitVec 1) (bvnot (|boundary_nibble_encoder#8| state))) ; \w_N7
(define-fun |boundary_nibble_encoder#10| ((state |boundary_nibble_encoder_s|)) (_ BitVec 1) (bvand (|boundary_nibble_encoder#4| state) (|boundary_nibble_encoder#9| state))) ; $and$./boundary_nibble_encoder.v:22$28_Y
(define-fun |boundary_nibble_encoder#11| ((state |boundary_nibble_encoder_s|)) (_ BitVec 1) (bvnot (|boundary_nibble_encoder#10| state))) ; \w_N9
(define-fun |boundary_nibble_encoder_n w_N9| ((state |boundary_nibble_encoder_s|)) Bool (= ((_ extract 0 0) (|boundary_nibble_encoder#11| state)) #b1))
; yosys-smt2-wire w_N8 1
(define-fun |boundary_nibble_encoder_n w_N8| ((state |boundary_nibble_encoder_s|)) Bool (= ((_ extract 0 0) (|boundary_nibble_encoder#4| state)) #b1))
; yosys-smt2-wire w_N7 1
(define-fun |boundary_nibble_encoder_n w_N7| ((state |boundary_nibble_encoder_s|)) Bool (= ((_ extract 0 0) (|boundary_nibble_encoder#9| state)) #b1))
; yosys-smt2-wire w_N6 1
(define-fun |boundary_nibble_encoder#12| ((state |boundary_nibble_encoder_s|)) (_ BitVec 1) (bvand (|boundary_nibble_encoder#3| state) (|boundary_nibble_encoder#7| state))) ; $and$./boundary_nibble_encoder.v:14$16_Y
(define-fun |boundary_nibble_encoder#13| ((state |boundary_nibble_encoder_s|)) (_ BitVec 1) (bvnot (|boundary_nibble_encoder#12| state))) ; \w_N4
(declare-fun |boundary_nibble_encoder#14| (|boundary_nibble_encoder_s|) (_ BitVec 1)) ; \i_ZEROED_NIBBLES [7]
(define-fun |boundary_nibble_encoder#15| ((state |boundary_nibble_encoder_s|)) (_ BitVec 1) (bvand (|boundary_nibble_encoder#5| state) (|boundary_nibble_encoder#14| state))) ; $and$./boundary_nibble_encoder.v:15$18_Y
(define-fun |boundary_nibble_encoder#16| ((state |boundary_nibble_encoder_s|)) (_ BitVec 1) (bvnot (|boundary_nibble_encoder#15| state))) ; \w_N5
(define-fun |boundary_nibble_encoder#17| ((state |boundary_nibble_encoder_s|)) (_ BitVec 1) (bvor (|boundary_nibble_encoder#13| state) (|boundary_nibble_encoder#16| state))) ; $or$./boundary_nibble_encoder.v:16$20_Y
(define-fun |boundary_nibble_encoder#18| ((state |boundary_nibble_encoder_s|)) (_ BitVec 1) (bvnot (|boundary_nibble_encoder#17| state))) ; \w_N6
(define-fun |boundary_nibble_encoder_n w_N6| ((state |boundary_nibble_encoder_s|)) Bool (= ((_ extract 0 0) (|boundary_nibble_encoder#18| state)) #b1))
; yosys-smt2-wire w_N5 1
(define-fun |boundary_nibble_encoder_n w_N5| ((state |boundary_nibble_encoder_s|)) Bool (= ((_ extract 0 0) (|boundary_nibble_encoder#16| state)) #b1))
; yosys-smt2-wire w_N4 1
(define-fun |boundary_nibble_encoder_n w_N4| ((state |boundary_nibble_encoder_s|)) Bool (= ((_ extract 0 0) (|boundary_nibble_encoder#13| state)) #b1))
; yosys-smt2-wire w_N3 1
(declare-fun |boundary_nibble_encoder#19| (|boundary_nibble_encoder_s|) (_ BitVec 1)) ; \i_ZEROED_NIBBLES [1]
(define-fun |boundary_nibble_encoder#20| ((state |boundary_nibble_encoder_s|)) (_ BitVec 1) (bvand (|boundary_nibble_encoder#0| state) (|boundary_nibble_encoder#19| state))) ; $and$./boundary_nibble_encoder.v:10$10_Y
(define-fun |boundary_nibble_encoder#21| ((state |boundary_nibble_encoder_s|)) (_ BitVec 1) (bvnot (|boundary_nibble_encoder#20| state))) ; \w_N0
(declare-fun |boundary_nibble_encoder#22| (|boundary_nibble_encoder_s|) (_ BitVec 1)) ; \i_ZEROED_NIBBLES [3]
(define-fun |boundary_nibble_encoder#23| ((state |boundary_nibble_encoder_s|)) (_ BitVec 1) (bvand (|boundary_nibble_encoder#1| state) (|boundary_nibble_encoder#22| state))) ; $and$./boundary_nibble_encoder.v:11$12_Y
(define-fun |boundary_nibble_encoder#24| ((state |boundary_nibble_encoder_s|)) (_ BitVec 1) (bvnot (|boundary_nibble_encoder#23| state))) ; \w_N1
(define-fun |boundary_nibble_encoder#25| ((state |boundary_nibble_encoder_s|)) (_ BitVec 1) (bvor (|boundary_nibble_encoder#21| state) (|boundary_nibble_encoder#24| state))) ; $eq$./boundary_nibble_encoder.v:49$69_Y
(define-fun |boundary_nibble_encoder#26| ((state |boundary_nibble_encoder_s|)) (_ BitVec 1) (bvnot (|boundary_nibble_encoder#25| state))) ; \w_N3
(define-fun |boundary_nibble_encoder_n w_N3| ((state |boundary_nibble_encoder_s|)) Bool (= ((_ extract 0 0) (|boundary_nibble_encoder#26| state)) #b1))
; yosys-smt2-wire w_N12 1
(define-fun |boundary_nibble_encoder#27| ((state |boundary_nibble_encoder_s|)) (_ BitVec 1) (bvnot (|boundary_nibble_encoder#1| state))) ; $not$./boundary_nibble_encoder.v:24$30_Y
(define-fun |boundary_nibble_encoder#28| ((state |boundary_nibble_encoder_s|)) (_ BitVec 1) (bvand (|boundary_nibble_encoder#27| state) (|boundary_nibble_encoder#19| state))) ; $and$./boundary_nibble_encoder.v:24$31_Y
(define-fun |boundary_nibble_encoder#29| ((state |boundary_nibble_encoder_s|)) (_ BitVec 1) (bvnot (|boundary_nibble_encoder#28| state))) ; \w_N10
(define-fun |boundary_nibble_encoder#30| ((state |boundary_nibble_encoder_s|)) (_ BitVec 1) (bvand (|boundary_nibble_encoder#0| state) (|boundary_nibble_encoder#29| state))) ; $and$./boundary_nibble_encoder.v:26$35_Y
(define-fun |boundary_nibble_encoder#31| ((state |boundary_nibble_encoder_s|)) (_ BitVec 1) (bvand (|boundary_nibble_encoder#22| state) (|boundary_nibble_encoder#19| state))) ; $and$./boundary_nibble_encoder.v:25$33_Y
(define-fun |boundary_nibble_encoder#32| ((state |boundary_nibble_encoder_s|)) (_ BitVec 1) (bvnot (|boundary_nibble_encoder#31| state))) ; \w_N11
(define-fun |boundary_nibble_encoder#33| ((state |boundary_nibble_encoder_s|)) (_ BitVec 1) (bvand (|boundary_nibble_encoder#30| state) (|boundary_nibble_encoder#32| state))) ; $and$./boundary_nibble_encoder.v:26$36_Y
(define-fun |boundary_nibble_encoder#34| ((state |boundary_nibble_encoder_s|)) (_ BitVec 1) (bvnot (|boundary_nibble_encoder#33| state))) ; \w_N12
(define-fun |boundary_nibble_encoder_n w_N12| ((state |boundary_nibble_encoder_s|)) Bool (= ((_ extract 0 0) (|boundary_nibble_encoder#34| state)) #b1))
; yosys-smt2-wire w_N11 1
(define-fun |boundary_nibble_encoder_n w_N11| ((state |boundary_nibble_encoder_s|)) Bool (= ((_ extract 0 0) (|boundary_nibble_encoder#32| state)) #b1))
; yosys-smt2-wire w_N10 1
(define-fun |boundary_nibble_encoder_n w_N10| ((state |boundary_nibble_encoder_s|)) Bool (= ((_ extract 0 0) (|boundary_nibble_encoder#29| state)) #b1))
; yosys-smt2-wire w_N1 1
(define-fun |boundary_nibble_encoder_n w_N1| ((state |boundary_nibble_encoder_s|)) Bool (= ((_ extract 0 0) (|boundary_nibble_encoder#24| state)) #b1))
; yosys-smt2-wire w_N0 1
(define-fun |boundary_nibble_encoder_n w_N0| ((state |boundary_nibble_encoder_s|)) Bool (= ((_ extract 0 0) (|boundary_nibble_encoder#21| state)) #b1))
; yosys-smt2-output o_Y 3
; yosys-smt2-wire o_Y 3
(define-fun |boundary_nibble_encoder#35| ((state |boundary_nibble_encoder_s|)) (_ BitVec 1) (bvand (|boundary_nibble_encoder#34| state) (|boundary_nibble_encoder#11| state))) ; $and$./boundary_nibble_encoder.v:30$42_Y
(define-fun |boundary_nibble_encoder#36| ((state |boundary_nibble_encoder_s|)) (_ BitVec 1) (bvnot (|boundary_nibble_encoder#35| state))) ; \o_Y [0]
(define-fun |boundary_nibble_encoder#37| ((state |boundary_nibble_encoder_s|)) (_ BitVec 1) (bvand (|boundary_nibble_encoder#23| state) (|boundary_nibble_encoder#13| state))) ; $and$./boundary_nibble_encoder.v:29$39_Y
(define-fun |boundary_nibble_encoder#38| ((state |boundary_nibble_encoder_s|)) (_ BitVec 1) (bvor (|boundary_nibble_encoder#37| state) (|boundary_nibble_encoder#21| state))) ; $eq$./boundary_nibble_encoder.v:55$79_Y
(define-fun |boundary_nibble_encoder#39| ((state |boundary_nibble_encoder_s|)) (_ BitVec 1) (bvnot (|boundary_nibble_encoder#38| state))) ; \o_Y [1]
(define-fun |boundary_nibble_encoder_n o_Y| ((state |boundary_nibble_encoder_s|)) (_ BitVec 3) (concat (|boundary_nibble_encoder#26| state) (concat (|boundary_nibble_encoder#39| state) (|boundary_nibble_encoder#36| state))))
; yosys-smt2-output o_INVALID 1
; yosys-smt2-wire o_INVALID 1
(define-fun |boundary_nibble_encoder#40| ((state |boundary_nibble_encoder_s|)) (_ BitVec 1) (bvand (|boundary_nibble_encoder#26| state) (|boundary_nibble_encoder#18| state))) ; \o_INVALID
(define-fun |boundary_nibble_encoder_n o_INVALID| ((state |boundary_nibble_encoder_s|)) Bool (= ((_ extract 0 0) (|boundary_nibble_encoder#40| state)) #b1))
; yosys-smt2-input i_ZEROED_NIBBLES 8
; yosys-smt2-wire i_ZEROED_NIBBLES 8
(define-fun |boundary_nibble_encoder_n i_ZEROED_NIBBLES| ((state |boundary_nibble_encoder_s|)) (_ BitVec 8) (concat (|boundary_nibble_encoder#14| state) (concat (|boundary_nibble_encoder#5| state) (concat (|boundary_nibble_encoder#7| state) (concat (|boundary_nibble_encoder#3| state) (concat (|boundary_nibble_encoder#22| state) (concat (|boundary_nibble_encoder#1| state) (concat (|boundary_nibble_encoder#19| state) (|boundary_nibble_encoder#0| state)))))))))
; yosys-smt2-anyseq boundary_nibble_encoder#41 1 $auto$setundef.cc:501:execute$218
(declare-fun |boundary_nibble_encoder#41| (|boundary_nibble_encoder_s|) (_ BitVec 1)) ; $auto$rtlil.cc:2437:Anyseq$219
(define-fun |boundary_nibble_encoder#42| ((state |boundary_nibble_encoder_s|)) (_ BitVec 1) (bvnot (|boundary_nibble_encoder#19| state))) ; $not$./boundary_nibble_encoder.v:57$80_Y
(define-fun |boundary_nibble_encoder#43| ((state |boundary_nibble_encoder_s|)) (_ BitVec 1) (bvnot (|boundary_nibble_encoder#22| state))) ; $not$./boundary_nibble_encoder.v:51$72_Y
(define-fun |boundary_nibble_encoder#44| ((state |boundary_nibble_encoder_s|)) (_ BitVec 1) (bvand (|boundary_nibble_encoder#1| state) (|boundary_nibble_encoder#43| state))) ; $and$./boundary_nibble_encoder.v:57$82_Y
(define-fun |boundary_nibble_encoder#45| ((state |boundary_nibble_encoder_s|)) (_ BitVec 1) (bvor (|boundary_nibble_encoder#42| state) (|boundary_nibble_encoder#44| state))) ; $or$./boundary_nibble_encoder.v:57$83_Y
(define-fun |boundary_nibble_encoder#46| ((state |boundary_nibble_encoder_s|)) (_ BitVec 1) (bvand (|boundary_nibble_encoder#0| state) (|boundary_nibble_encoder#45| state))) ; $and$./boundary_nibble_encoder.v:56$84_Y
(define-fun |boundary_nibble_encoder#47| ((state |boundary_nibble_encoder_s|)) (_ BitVec 1) (bvnot (|boundary_nibble_encoder#7| state))) ; $not$./boundary_nibble_encoder.v:59$87_Y
(define-fun |boundary_nibble_encoder#48| ((state |boundary_nibble_encoder_s|)) (_ BitVec 1) (bvor (|boundary_nibble_encoder#47| state) (|boundary_nibble_encoder#5| state))) ; $or$./boundary_nibble_encoder.v:59$88_Y
(define-fun |boundary_nibble_encoder#49| ((state |boundary_nibble_encoder_s|)) (_ BitVec 1) (bvand (|boundary_nibble_encoder#4| state) (|boundary_nibble_encoder#48| state))) ; $and$./boundary_nibble_encoder.v:58$89_Y
(define-fun |boundary_nibble_encoder#50| ((state |boundary_nibble_encoder_s|)) (_ BitVec 1) (bvor (|boundary_nibble_encoder#46| state) (|boundary_nibble_encoder#49| state))) ; $or$./boundary_nibble_encoder.v:56$90_Y
(define-fun |boundary_nibble_encoder#51| ((state |boundary_nibble_encoder_s|)) (_ BitVec 1) (ite (= ((_ extract 0 0) (|boundary_nibble_encoder#50| state)) #b1) (|boundary_nibble_encoder#41| state) (|boundary_nibble_encoder#35| state))) ; $procmux$187_Y
; yosys-smt2-anyseq boundary_nibble_encoder#52 1 $auto$setundef.cc:501:execute$220
(declare-fun |boundary_nibble_encoder#52| (|boundary_nibble_encoder_s|) (_ BitVec 1)) ; $auto$rtlil.cc:2437:Anyseq$221
(define-fun |boundary_nibble_encoder#53| ((state |boundary_nibble_encoder_s|)) Bool (= (concat (|boundary_nibble_encoder#14| state) (concat (|boundary_nibble_encoder#5| state) (concat (|boundary_nibble_encoder#7| state) (concat (|boundary_nibble_encoder#3| state) (concat (|boundary_nibble_encoder#22| state) (concat (|boundary_nibble_encoder#1| state) (concat (|boundary_nibble_encoder#19| state) (|boundary_nibble_encoder#0| state)))))))) #b11111111)) ; $eq$./boundary_nibble_encoder.v:36$63_Y
(define-fun |boundary_nibble_encoder#54| ((state |boundary_nibble_encoder_s|)) (_ BitVec 1) (ite (|boundary_nibble_encoder#53| state) (|boundary_nibble_encoder#52| state) (|boundary_nibble_encoder#51| state))) ; $0$formal$./boundary_nibble_encoder.v:61$9_CHECK[0:0]$61
(define-fun |boundary_nibble_encoder#55| ((state |boundary_nibble_encoder_s|)) (_ BitVec 1) (ite (= ((_ extract 0 0) (|boundary_nibble_encoder#50| state)) #b1) #b0 #b1)) ; $procmux$181_Y
(define-fun |boundary_nibble_encoder#56| ((state |boundary_nibble_encoder_s|)) (_ BitVec 1) (ite (|boundary_nibble_encoder#53| state) #b0 (|boundary_nibble_encoder#55| state))) ; $0$formal$./boundary_nibble_encoder.v:61$9_EN[0:0]$62
; yosys-smt2-assert 0 ./boundary_nibble_encoder.v:61.8-62.27
(define-fun |boundary_nibble_encoder_a 0| ((state |boundary_nibble_encoder_s|)) Bool (or (= ((_ extract 0 0) (|boundary_nibble_encoder#54| state)) #b1) (not (= ((_ extract 0 0) (|boundary_nibble_encoder#56| state)) #b1)))) ; $assert$./boundary_nibble_encoder.v:61$101
; yosys-smt2-anyseq boundary_nibble_encoder#57 1 $auto$setundef.cc:501:execute$214
(declare-fun |boundary_nibble_encoder#57| (|boundary_nibble_encoder_s|) (_ BitVec 1)) ; $auto$rtlil.cc:2437:Anyseq$215
(define-fun |boundary_nibble_encoder#58| ((state |boundary_nibble_encoder_s|)) (_ BitVec 1) (ite (= ((_ extract 0 0) (|boundary_nibble_encoder#50| state)) #b1) (|boundary_nibble_encoder#36| state) (|boundary_nibble_encoder#57| state))) ; $procmux$175_Y
; yosys-smt2-anyseq boundary_nibble_encoder#59 1 $auto$setundef.cc:501:execute$216
(declare-fun |boundary_nibble_encoder#59| (|boundary_nibble_encoder_s|) (_ BitVec 1)) ; $auto$rtlil.cc:2437:Anyseq$217
(define-fun |boundary_nibble_encoder#60| ((state |boundary_nibble_encoder_s|)) (_ BitVec 1) (ite (|boundary_nibble_encoder#53| state) (|boundary_nibble_encoder#59| state) (|boundary_nibble_encoder#58| state))) ; $0$formal$./boundary_nibble_encoder.v:59$8_CHECK[0:0]$59
(define-fun |boundary_nibble_encoder#61| ((state |boundary_nibble_encoder_s|)) (_ BitVec 1) (ite (= ((_ extract 0 0) (|boundary_nibble_encoder#50| state)) #b1) #b1 #b0)) ; $procmux$169_Y
(define-fun |boundary_nibble_encoder#62| ((state |boundary_nibble_encoder_s|)) (_ BitVec 1) (ite (|boundary_nibble_encoder#53| state) #b0 (|boundary_nibble_encoder#61| state))) ; $0$formal$./boundary_nibble_encoder.v:59$8_EN[0:0]$60
; yosys-smt2-assert 1 ./boundary_nibble_encoder.v:59.51-60.27
(define-fun |boundary_nibble_encoder_a 1| ((state |boundary_nibble_encoder_s|)) Bool (or (= ((_ extract 0 0) (|boundary_nibble_encoder#60| state)) #b1) (not (= ((_ extract 0 0) (|boundary_nibble_encoder#62| state)) #b1)))) ; $assert$./boundary_nibble_encoder.v:59$100
; yosys-smt2-anyseq boundary_nibble_encoder#63 1 $auto$setundef.cc:501:execute$210
(declare-fun |boundary_nibble_encoder#63| (|boundary_nibble_encoder_s|) (_ BitVec 1)) ; $auto$rtlil.cc:2437:Anyseq$211
(define-fun |boundary_nibble_encoder#64| ((state |boundary_nibble_encoder_s|)) (_ BitVec 1) (bvor (|boundary_nibble_encoder#27| state) (|boundary_nibble_encoder#43| state))) ; $or$./boundary_nibble_encoder.v:51$73_Y
(define-fun |boundary_nibble_encoder#65| ((state |boundary_nibble_encoder_s|)) (_ BitVec 1) (bvor (|boundary_nibble_encoder#64| state) (|boundary_nibble_encoder#12| state))) ; $eq$./boundary_nibble_encoder.v:51$76_Y
(define-fun |boundary_nibble_encoder#66| ((state |boundary_nibble_encoder_s|)) (_ BitVec 1) (bvand (|boundary_nibble_encoder#20| state) (|boundary_nibble_encoder#65| state))) ; $and$./boundary_nibble_encoder.v:50$77_Y
(define-fun |boundary_nibble_encoder#67| ((state |boundary_nibble_encoder_s|)) (_ BitVec 1) (ite (= ((_ extract 0 0) (|boundary_nibble_encoder#66| state)) #b1) (|boundary_nibble_encoder#63| state) (|boundary_nibble_encoder#38| state))) ; $procmux$163_Y
; yosys-smt2-anyseq boundary_nibble_encoder#68 1 $auto$setundef.cc:501:execute$212
(declare-fun |boundary_nibble_encoder#68| (|boundary_nibble_encoder_s|) (_ BitVec 1)) ; $auto$rtlil.cc:2437:Anyseq$213
(define-fun |boundary_nibble_encoder#69| ((state |boundary_nibble_encoder_s|)) (_ BitVec 1) (ite (|boundary_nibble_encoder#53| state) (|boundary_nibble_encoder#68| state) (|boundary_nibble_encoder#67| state))) ; $0$formal$./boundary_nibble_encoder.v:54$7_CHECK[0:0]$57
(define-fun |boundary_nibble_encoder#70| ((state |boundary_nibble_encoder_s|)) (_ BitVec 1) (ite (= ((_ extract 0 0) (|boundary_nibble_encoder#66| state)) #b1) #b0 #b1)) ; $procmux$157_Y
(define-fun |boundary_nibble_encoder#71| ((state |boundary_nibble_encoder_s|)) (_ BitVec 1) (ite (|boundary_nibble_encoder#53| state) #b0 (|boundary_nibble_encoder#70| state))) ; $0$formal$./boundary_nibble_encoder.v:54$7_EN[0:0]$58
; yosys-smt2-assert 2 ./boundary_nibble_encoder.v:54.8-55.27
(define-fun |boundary_nibble_encoder_a 2| ((state |boundary_nibble_encoder_s|)) Bool (or (= ((_ extract 0 0) (|boundary_nibble_encoder#69| state)) #b1) (not (= ((_ extract 0 0) (|boundary_nibble_encoder#71| state)) #b1)))) ; $assert$./boundary_nibble_encoder.v:54$99
; yosys-smt2-anyseq boundary_nibble_encoder#72 1 $auto$setundef.cc:501:execute$206
(declare-fun |boundary_nibble_encoder#72| (|boundary_nibble_encoder_s|) (_ BitVec 1)) ; $auto$rtlil.cc:2437:Anyseq$207
(define-fun |boundary_nibble_encoder#73| ((state |boundary_nibble_encoder_s|)) (_ BitVec 1) (ite (= ((_ extract 0 0) (|boundary_nibble_encoder#66| state)) #b1) (|boundary_nibble_encoder#39| state) (|boundary_nibble_encoder#72| state))) ; $procmux$151_Y
; yosys-smt2-anyseq boundary_nibble_encoder#74 1 $auto$setundef.cc:501:execute$208
(declare-fun |boundary_nibble_encoder#74| (|boundary_nibble_encoder_s|) (_ BitVec 1)) ; $auto$rtlil.cc:2437:Anyseq$209
(define-fun |boundary_nibble_encoder#75| ((state |boundary_nibble_encoder_s|)) (_ BitVec 1) (ite (|boundary_nibble_encoder#53| state) (|boundary_nibble_encoder#74| state) (|boundary_nibble_encoder#73| state))) ; $0$formal$./boundary_nibble_encoder.v:52$6_CHECK[0:0]$55
(define-fun |boundary_nibble_encoder#76| ((state |boundary_nibble_encoder_s|)) (_ BitVec 1) (ite (= ((_ extract 0 0) (|boundary_nibble_encoder#66| state)) #b1) #b1 #b0)) ; $procmux$145_Y
(define-fun |boundary_nibble_encoder#77| ((state |boundary_nibble_encoder_s|)) (_ BitVec 1) (ite (|boundary_nibble_encoder#53| state) #b0 (|boundary_nibble_encoder#76| state))) ; $0$formal$./boundary_nibble_encoder.v:52$6_EN[0:0]$56
; yosys-smt2-assert 3 ./boundary_nibble_encoder.v:52.58-53.27
(define-fun |boundary_nibble_encoder_a 3| ((state |boundary_nibble_encoder_s|)) Bool (or (= ((_ extract 0 0) (|boundary_nibble_encoder#75| state)) #b1) (not (= ((_ extract 0 0) (|boundary_nibble_encoder#77| state)) #b1)))) ; $assert$./boundary_nibble_encoder.v:52$98
; yosys-smt2-anyseq boundary_nibble_encoder#78 1 $auto$setundef.cc:501:execute$202
(declare-fun |boundary_nibble_encoder#78| (|boundary_nibble_encoder_s|) (_ BitVec 1)) ; $auto$rtlil.cc:2437:Anyseq$203
(define-fun |boundary_nibble_encoder#79| ((state |boundary_nibble_encoder_s|)) Bool (= (concat (|boundary_nibble_encoder#22| state) (concat (|boundary_nibble_encoder#1| state) (concat (|boundary_nibble_encoder#19| state) (|boundary_nibble_encoder#0| state)))) #b1111)) ; $eq$./boundary_nibble_encoder.v:46$67_Y
(define-fun |boundary_nibble_encoder#80| ((state |boundary_nibble_encoder_s|)) (_ BitVec 1) (ite (|boundary_nibble_encoder#79| state) (|boundary_nibble_encoder#78| state) (|boundary_nibble_encoder#25| state))) ; $procmux$139_Y
; yosys-smt2-anyseq boundary_nibble_encoder#81 1 $auto$setundef.cc:501:execute$204
(declare-fun |boundary_nibble_encoder#81| (|boundary_nibble_encoder_s|) (_ BitVec 1)) ; $auto$rtlil.cc:2437:Anyseq$205
(define-fun |boundary_nibble_encoder#82| ((state |boundary_nibble_encoder_s|)) (_ BitVec 1) (ite (|boundary_nibble_encoder#53| state) (|boundary_nibble_encoder#81| state) (|boundary_nibble_encoder#80| state))) ; $0$formal$./boundary_nibble_encoder.v:48$5_CHECK[0:0]$53
(define-fun |boundary_nibble_encoder#83| ((state |boundary_nibble_encoder_s|)) (_ BitVec 1) (ite (|boundary_nibble_encoder#79| state) #b0 #b1)) ; $procmux$133_Y
(define-fun |boundary_nibble_encoder#84| ((state |boundary_nibble_encoder_s|)) (_ BitVec 1) (ite (|boundary_nibble_encoder#53| state) #b0 (|boundary_nibble_encoder#83| state))) ; $0$formal$./boundary_nibble_encoder.v:48$5_EN[0:0]$54
; yosys-smt2-assert 4 ./boundary_nibble_encoder.v:48.8-49.27
(define-fun |boundary_nibble_encoder_a 4| ((state |boundary_nibble_encoder_s|)) Bool (or (= ((_ extract 0 0) (|boundary_nibble_encoder#82| state)) #b1) (not (= ((_ extract 0 0) (|boundary_nibble_encoder#84| state)) #b1)))) ; $assert$./boundary_nibble_encoder.v:48$97
; yosys-smt2-anyseq boundary_nibble_encoder#85 1 $auto$setundef.cc:501:execute$198
(declare-fun |boundary_nibble_encoder#85| (|boundary_nibble_encoder_s|) (_ BitVec 1)) ; $auto$rtlil.cc:2437:Anyseq$199
(define-fun |boundary_nibble_encoder#86| ((state |boundary_nibble_encoder_s|)) (_ BitVec 1) (ite (|boundary_nibble_encoder#79| state) (|boundary_nibble_encoder#26| state) (|boundary_nibble_encoder#85| state))) ; $procmux$127_Y
; yosys-smt2-anyseq boundary_nibble_encoder#87 1 $auto$setundef.cc:501:execute$200
(declare-fun |boundary_nibble_encoder#87| (|boundary_nibble_encoder_s|) (_ BitVec 1)) ; $auto$rtlil.cc:2437:Anyseq$201
(define-fun |boundary_nibble_encoder#88| ((state |boundary_nibble_encoder_s|)) (_ BitVec 1) (ite (|boundary_nibble_encoder#53| state) (|boundary_nibble_encoder#87| state) (|boundary_nibble_encoder#86| state))) ; $0$formal$./boundary_nibble_encoder.v:46$4_CHECK[0:0]$51
(define-fun |boundary_nibble_encoder#89| ((state |boundary_nibble_encoder_s|)) (_ BitVec 1) (ite (|boundary_nibble_encoder#79| state) #b1 #b0)) ; $procmux$121_Y
(define-fun |boundary_nibble_encoder#90| ((state |boundary_nibble_encoder_s|)) (_ BitVec 1) (ite (|boundary_nibble_encoder#53| state) #b0 (|boundary_nibble_encoder#89| state))) ; $0$formal$./boundary_nibble_encoder.v:46$4_EN[0:0]$52
; yosys-smt2-assert 5 ./boundary_nibble_encoder.v:46.40-47.27
(define-fun |boundary_nibble_encoder_a 5| ((state |boundary_nibble_encoder_s|)) Bool (or (= ((_ extract 0 0) (|boundary_nibble_encoder#88| state)) #b1) (not (= ((_ extract 0 0) (|boundary_nibble_encoder#90| state)) #b1)))) ; $assert$./boundary_nibble_encoder.v:46$96
(define-fun |boundary_nibble_encoder#91| ((state |boundary_nibble_encoder_s|)) (_ BitVec 1) (bvnot (|boundary_nibble_encoder#40| state))) ; $eq$./boundary_nibble_encoder.v:43$66_Y
; yosys-smt2-anyseq boundary_nibble_encoder#92 1 $auto$setundef.cc:501:execute$196
(declare-fun |boundary_nibble_encoder#92| (|boundary_nibble_encoder_s|) (_ BitVec 1)) ; $auto$rtlil.cc:2437:Anyseq$197
(define-fun |boundary_nibble_encoder#93| ((state |boundary_nibble_encoder_s|)) (_ BitVec 1) (ite (|boundary_nibble_encoder#53| state) (|boundary_nibble_encoder#92| state) (|boundary_nibble_encoder#91| state))) ; $0$formal$./boundary_nibble_encoder.v:42$3_CHECK[0:0]$49
(define-fun |boundary_nibble_encoder#94| ((state |boundary_nibble_encoder_s|)) (_ BitVec 1) (ite (|boundary_nibble_encoder#53| state) #b0 #b1)) ; $0$formal$./boundary_nibble_encoder.v:42$3_EN[0:0]$50
; yosys-smt2-assert 6 ./boundary_nibble_encoder.v:42.8-43.29
(define-fun |boundary_nibble_encoder_a 6| ((state |boundary_nibble_encoder_s|)) Bool (or (= ((_ extract 0 0) (|boundary_nibble_encoder#93| state)) #b1) (not (= ((_ extract 0 0) (|boundary_nibble_encoder#94| state)) #b1)))) ; $assert$./boundary_nibble_encoder.v:42$95
; yosys-smt2-anyseq boundary_nibble_encoder#95 1 $auto$setundef.cc:501:execute$194
(declare-fun |boundary_nibble_encoder#95| (|boundary_nibble_encoder_s|) (_ BitVec 1)) ; $auto$rtlil.cc:2437:Anyseq$195
(define-fun |boundary_nibble_encoder#96| ((state |boundary_nibble_encoder_s|)) Bool (= (concat (|boundary_nibble_encoder#26| state) (concat (|boundary_nibble_encoder#39| state) (|boundary_nibble_encoder#36| state))) #b111)) ; $eq$./boundary_nibble_encoder.v:39$65_Y
(define-fun |boundary_nibble_encoder#97| ((state |boundary_nibble_encoder_s|)) (_ BitVec 1) (ite (|boundary_nibble_encoder#53| state) (ite (|boundary_nibble_encoder#96| state) #b1 #b0) (|boundary_nibble_encoder#95| state))) ; $0$formal$./boundary_nibble_encoder.v:38$2_CHECK[0:0]$47
(define-fun |boundary_nibble_encoder#98| ((state |boundary_nibble_encoder_s|)) (_ BitVec 1) (ite (|boundary_nibble_encoder#53| state) #b1 #b0)) ; $0$formal$./boundary_nibble_encoder.v:37$1_EN[0:0]$46
; yosys-smt2-assert 7 ./boundary_nibble_encoder.v:38.30-39.25
(define-fun |boundary_nibble_encoder_a 7| ((state |boundary_nibble_encoder_s|)) Bool (or (= ((_ extract 0 0) (|boundary_nibble_encoder#97| state)) #b1) (not (= ((_ extract 0 0) (|boundary_nibble_encoder#98| state)) #b1)))) ; $assert$./boundary_nibble_encoder.v:38$94
; yosys-smt2-anyseq boundary_nibble_encoder#99 1 $auto$setundef.cc:501:execute$192
(declare-fun |boundary_nibble_encoder#99| (|boundary_nibble_encoder_s|) (_ BitVec 1)) ; $auto$rtlil.cc:2437:Anyseq$193
(define-fun |boundary_nibble_encoder#100| ((state |boundary_nibble_encoder_s|)) (_ BitVec 1) (ite (|boundary_nibble_encoder#53| state) (|boundary_nibble_encoder#40| state) (|boundary_nibble_encoder#99| state))) ; $0$formal$./boundary_nibble_encoder.v:37$1_CHECK[0:0]$45
; yosys-smt2-assert 8 ./boundary_nibble_encoder.v:37.8-38.29
(define-fun |boundary_nibble_encoder_a 8| ((state |boundary_nibble_encoder_s|)) Bool (or (= ((_ extract 0 0) (|boundary_nibble_encoder#100| state)) #b1) (not (= ((_ extract 0 0) (|boundary_nibble_encoder#98| state)) #b1)))) ; $assert$./boundary_nibble_encoder.v:37$93
(define-fun |boundary_nibble_encoder_a| ((state |boundary_nibble_encoder_s|)) Bool (and
  (|boundary_nibble_encoder_a 0| state)
  (|boundary_nibble_encoder_a 1| state)
  (|boundary_nibble_encoder_a 2| state)
  (|boundary_nibble_encoder_a 3| state)
  (|boundary_nibble_encoder_a 4| state)
  (|boundary_nibble_encoder_a 5| state)
  (|boundary_nibble_encoder_a 6| state)
  (|boundary_nibble_encoder_a 7| state)
  (|boundary_nibble_encoder_a 8| state)
))
(define-fun |boundary_nibble_encoder_u| ((state |boundary_nibble_encoder_s|)) Bool true)
(define-fun |boundary_nibble_encoder_i| ((state |boundary_nibble_encoder_s|)) Bool true)
(define-fun |boundary_nibble_encoder_h| ((state |boundary_nibble_encoder_s|)) Bool true)
(define-fun |boundary_nibble_encoder_t| ((state |boundary_nibble_encoder_s|) (next_state |boundary_nibble_encoder_s|)) Bool true) ; end of module boundary_nibble_encoder
; yosys-smt2-topmod boundary_nibble_encoder
; end of yosys output
